c A SAT instance generated from a 3-CNF formula that had 30 clauses and 8 variables
p cnf 8 30
2 -7 -3 0
-8 4 7 0
-6 4 5 0
-4 7 3 0
5 3 -6 0
7 3 4 0
1 6 -8 0
-2 -6 -8 0
-4 -7 8 0
-5 -8 1 0
7 3 -2 0
5 -6 -1 0
3 -4 6 0
-5 1 7 0
-8 -3 2 0
-6 -5 1 0
6 2 -5 0
1 2 4 0
-1 -3 -2 0
5 7 -3 0
-4 8 -7 0
-4 8 7 0
7 -6 -4 0
2 1 4 0
7 -3 -4 0
-5 7 -2 0
5 8 2 0
8 2 5 0
-5 -3 4 0
-8 -3 2 0
